NAME : mtsp51.159573_473639.tour
COMMENT : Cost = 159573_473639
COMMENT : Found by LKH-3 [Keld Helsgaun] Tue Mar 15 23:34:21 2022
TYPE : TOUR
DIMENSION : 53
TOUR_SECTION
1
22
29
20
35
36
3
28
31
8
26
7
43
24
23
48
53
32
11
38
5
37
15
45
33
39
10
49
9
30
34
21
50
16
2
52
27
6
14
25
13
41
40
19
42
44
17
4
18
47
12
46
51
-1
EOF
